NAME /Users/henri/Research/solvers/instances/idol-instances/robust/collection/cbp_Subramanyam_et_al_2020/CapBud_N20_3/models/uncertain_technology_matrix/
ROWS
 N  OBJ
 L  capacity
 L  c_2340
 L  c_2341
 L  c_2342
 L  c_2343
 L  c_2344
 L  c_2345
 L  c_2346
 L  c_2347
 L  c_2348
 L  c_2349
 L  c_2350
 L  c_2351
 L  c_2352
 L  c_2353
 L  c_2354
 L  c_2355
 L  c_2356
 L  c_2357
 L  c_2358
 L  c_2359
COLUMNS
    MARKER    'MARKER'                 'INTORG'
    x_0        OBJ        -7.77355
    x_0        c_2340     1
    x_0        capacity   1.55471
    x_1        OBJ        -3.29047
    x_1        c_2341     1
    x_1        capacity   0.658094
    x_2        OBJ        -6.68715
    x_2        c_2342     1
    x_2        capacity   1.33743
    x_3        OBJ        -7.69316
    x_3        c_2343     1
    x_3        capacity   1.53863
    x_4        OBJ        -1.83889
    x_4        c_2344     1
    x_4        capacity   0.367779
    x_5        OBJ        -7.02286
    x_5        c_2345     1
    x_5        capacity   1.40457
    x_6        OBJ        -5.84924
    x_6        c_2346     1
    x_6        capacity   1.16985
    x_7        OBJ        -5.27928
    x_7        c_2347     1
    x_7        capacity   1.05586
    x_8        OBJ        -4.13096
    x_8        c_2348     1
    x_8        capacity   0.826191
    x_9        OBJ        -9.92447
    x_9        c_2349     1
    x_9        capacity   1.98489
    x_10       OBJ        -8.05112
    x_10       c_2350     1
    x_10       capacity   1.61022
    x_11       OBJ        -1.03821
    x_11       c_2351     1
    x_11       capacity   0.207641
    x_12       OBJ        -3.30784
    x_12       c_2352     1
    x_12       capacity   0.661568
    x_13       OBJ        -5.3231
    x_13       c_2353     1
    x_13       capacity   1.06462
    x_14       OBJ        -7.8817
    x_14       c_2354     1
    x_14       capacity   1.57634
    x_15       OBJ        -7.09349
    x_15       c_2355     1
    x_15       capacity   1.4187
    x_16       OBJ        -3.30845
    x_16       c_2356     1
    x_16       capacity   0.661691
    x_17       OBJ        -8.82502
    x_17       c_2357     1
    x_17       capacity   1.765
    x_18       OBJ        -5.4024
    x_18       c_2358     1
    x_18       capacity   1.08048
    x_19       OBJ        -8.55859
    x_19       c_2359     1
    x_19       capacity   1.71172
    y_0        OBJ        -6.21884
    y_0        c_2340     1
    y_0        capacity   1.55471
    y_1        OBJ        -2.63238
    y_1        c_2341     1
    y_1        capacity   0.658094
    y_2        OBJ        -5.34972
    y_2        c_2342     1
    y_2        capacity   1.33743
    y_3        OBJ        -6.15453
    y_3        c_2343     1
    y_3        capacity   1.53863
    y_4        OBJ        -1.47112
    y_4        c_2344     1
    y_4        capacity   0.367779
    y_5        OBJ        -5.61829
    y_5        c_2345     1
    y_5        capacity   1.40457
    y_6        OBJ        -4.67939
    y_6        c_2346     1
    y_6        capacity   1.16985
    y_7        OBJ        -4.22343
    y_7        c_2347     1
    y_7        capacity   1.05586
    y_8        OBJ        -3.30477
    y_8        c_2348     1
    y_8        capacity   0.826191
    y_9        OBJ        -7.93957
    y_9        c_2349     1
    y_9        capacity   1.98489
    y_10       OBJ        -6.4409
    y_10       c_2350     1
    y_10       capacity   1.61022
    y_11       OBJ        -0.830566
    y_11       c_2351     1
    y_11       capacity   0.207641
    y_12       OBJ        -2.64627
    y_12       c_2352     1
    y_12       capacity   0.661568
    y_13       OBJ        -4.25848
    y_13       c_2353     1
    y_13       capacity   1.06462
    y_14       OBJ        -6.30536
    y_14       c_2354     1
    y_14       capacity   1.57634
    y_15       OBJ        -5.67479
    y_15       c_2355     1
    y_15       capacity   1.4187
    y_16       OBJ        -2.64676
    y_16       c_2356     1
    y_16       capacity   0.661691
    y_17       OBJ        -7.06002
    y_17       c_2357     1
    y_17       capacity   1.765
    y_18       OBJ        -4.32192
    y_18       c_2358     1
    y_18       capacity   1.08048
    y_19       OBJ        -6.84687
    y_19       c_2359     1
    y_19       capacity   1.71172
    MARKER    'MARKER'                 'INTEND'
RHS
    RHS       capacity   59.14
    RHS       c_2340     1
    RHS       c_2341     1
    RHS       c_2342     1
    RHS       c_2343     1
    RHS       c_2344     1
    RHS       c_2345     1
    RHS       c_2346     1
    RHS       c_2347     1
    RHS       c_2348     1
    RHS       c_2349     1
    RHS       c_2350     1
    RHS       c_2351     1
    RHS       c_2352     1
    RHS       c_2353     1
    RHS       c_2354     1
    RHS       c_2355     1
    RHS       c_2356     1
    RHS       c_2357     1
    RHS       c_2358     1
    RHS       c_2359     1
BOUNDS
 LI BND       x_0        0
 UI BND       x_0        1
 LI BND       x_1        0
 UI BND       x_1        1
 LI BND       x_2        0
 UI BND       x_2        1
 LI BND       x_3        0
 UI BND       x_3        1
 LI BND       x_4        0
 UI BND       x_4        1
 LI BND       x_5        0
 UI BND       x_5        1
 LI BND       x_6        0
 UI BND       x_6        1
 LI BND       x_7        0
 UI BND       x_7        1
 LI BND       x_8        0
 UI BND       x_8        1
 LI BND       x_9        0
 UI BND       x_9        1
 LI BND       x_10       0
 UI BND       x_10       1
 LI BND       x_11       0
 UI BND       x_11       1
 LI BND       x_12       0
 UI BND       x_12       1
 LI BND       x_13       0
 UI BND       x_13       1
 LI BND       x_14       0
 UI BND       x_14       1
 LI BND       x_15       0
 UI BND       x_15       1
 LI BND       x_16       0
 UI BND       x_16       1
 LI BND       x_17       0
 UI BND       x_17       1
 LI BND       x_18       0
 UI BND       x_18       1
 LI BND       x_19       0
 UI BND       x_19       1
 LI BND       y_0        0
 UI BND       y_0        1
 LI BND       y_1        0
 UI BND       y_1        1
 LI BND       y_2        0
 UI BND       y_2        1
 LI BND       y_3        0
 UI BND       y_3        1
 LI BND       y_4        0
 UI BND       y_4        1
 LI BND       y_5        0
 UI BND       y_5        1
 LI BND       y_6        0
 UI BND       y_6        1
 LI BND       y_7        0
 UI BND       y_7        1
 LI BND       y_8        0
 UI BND       y_8        1
 LI BND       y_9        0
 UI BND       y_9        1
 LI BND       y_10       0
 UI BND       y_10       1
 LI BND       y_11       0
 UI BND       y_11       1
 LI BND       y_12       0
 UI BND       y_12       1
 LI BND       y_13       0
 UI BND       y_13       1
 LI BND       y_14       0
 UI BND       y_14       1
 LI BND       y_15       0
 UI BND       y_15       1
 LI BND       y_16       0
 UI BND       y_16       1
 LI BND       y_17       0
 UI BND       y_17       1
 LI BND       y_18       0
 UI BND       y_18       1
 LI BND       y_19       0
 UI BND       y_19       1
ENDATA
